<?xml version="1.0" encoding="UTF-8"?><osil xmlns="os.optimizationservices.org"   xmlns:xsi="http://www.w3.org/2001/XMLSchema-instance" xsi:schemaLocation="os.optimizationservices.org http://www.optimizationservices.org/schemas/2.0/OSiL.xsd" ><instanceHeader><name>q_40_0_25_5</name></instanceHeader><instanceData><variables numberOfVariables="40"><var name="x1" ub="1"/><var name="x2" ub="1"/><var name="x3" ub="1"/><var name="x4" ub="1"/><var name="x5" ub="1"/><var name="x6" ub="1"/><var name="x7" ub="1"/><var name="x8" ub="1"/><var name="x9" ub="1"/><var name="x10" ub="1"/><var name="x11" ub="1"/><var name="x12" ub="1"/><var name="x13" ub="1"/><var name="x14" ub="1"/><var name="x15" ub="1"/><var name="x16" ub="1"/><var name="x17" ub="1"/><var name="x18" ub="1"/><var name="x19" ub="1"/><var name="x20" ub="1"/><var name="x21" ub="1"/><var name="x22" ub="1"/><var name="x23" ub="1"/><var name="x24" ub="1"/><var name="x25" ub="1"/><var name="x26" ub="1"/><var name="x27" ub="1"/><var name="x28" ub="1"/><var name="x29" ub="1"/><var name="x30" ub="1"/><var name="x31" ub="1"/><var name="x32" ub="1"/><var name="x33" ub="1"/><var name="x34" ub="1"/><var name="x35" ub="1"/><var name="x36" ub="1"/><var name="x37" ub="1"/><var name="x38" ub="1"/><var name="x39" ub="1"/><var name="x40" ub="1"/></variables><objectives numberOfObjectives="1"><obj maxOrMin="min" name="defObj_x41" numberOfObjCoef="40"><coef idx="0">.9235</coef><coef idx="1">-.5794</coef><coef idx="2">.227</coef><coef idx="3">-.3337</coef><coef idx="4">-.3646</coef><coef idx="5">-.4327</coef><coef idx="6">-.1094</coef><coef idx="7">.3825</coef><coef idx="8">.5071</coef><coef idx="9">.8944</coef><coef idx="10">-.3627</coef><coef idx="11">6.5e-2</coef><coef idx="12">.7137</coef><coef idx="13">.5367</coef><coef idx="14">.1169</coef><coef idx="15">.1142</coef><coef idx="16">-.814</coef><coef idx="17">.7162</coef><coef idx="18">.4038</coef><coef idx="19">.3275</coef><coef idx="20">-.7578</coef><coef idx="21">.2681</coef><coef idx="22">.618</coef><coef idx="23">.8112</coef><coef idx="24">.652</coef><coef idx="25">.5574</coef><coef idx="26">.1105</coef><coef idx="27">-.685</coef><coef idx="28">.2517</coef><coef idx="29">-.2113</coef><coef idx="30">-.9952</coef><coef idx="31">-.9702</coef><coef idx="32">-.3537</coef><coef idx="33">.326</coef><coef idx="34">-.2615</coef><coef idx="35">-.1564</coef><coef idx="36">.9175</coef><coef idx="37">-.5903</coef><coef idx="38">.9029</coef><coef idx="39">.3648</coef></obj></objectives><quadraticCoefficients  numberOfQuadraticTerms="205" ><qTerm  idx="-1"  idxOne="0"  idxTwo="9"  coef="-1.2014"/><qTerm  idx="-1"  idxOne="0"  idxTwo="23"  coef="-.6521"/><qTerm  idx="-1"  idxOne="1"  idxTwo="6"  coef="1.1338"/><qTerm  idx="-1"  idxOne="1"  idxTwo="11"  coef="-.1821"/><qTerm  idx="-1"  idxOne="1"  idxTwo="13"  coef=".758"/><qTerm  idx="-1"  idxOne="1"  idxTwo="14"  coef="-8.6e-3"/><qTerm  idx="-1"  idxOne="1"  idxTwo="15"  coef="-1.11e-2"/><qTerm  idx="-1"  idxOne="1"  idxTwo="28"  coef="1.1149"/><qTerm  idx="-1"  idxOne="1"  idxTwo="29"  coef="-.9379"/><qTerm  idx="-1"  idxOne="1"  idxTwo="32"  coef="-1.8419"/><qTerm  idx="-1"  idxOne="1"  idxTwo="33"  coef="-.8535"/><qTerm  idx="-1"  idxOne="1"  idxTwo="34"  coef="1.9849"/><qTerm  idx="-1"  idxOne="1"  idxTwo="36"  coef="-.3441"/><qTerm  idx="-1"  idxOne="1"  idxTwo="38"  coef="1.1758"/><qTerm  idx="-1"  idxOne="2"  idxTwo="5"  coef="1.5083"/><qTerm  idx="-1"  idxOne="2"  idxTwo="9"  coef=".977"/><qTerm  idx="-1"  idxOne="2"  idxTwo="11"  coef="1.5228"/><qTerm  idx="-1"  idxOne="2"  idxTwo="12"  coef="-.8832"/><qTerm  idx="-1"  idxOne="2"  idxTwo="13"  coef="-.2743"/><qTerm  idx="-1"  idxOne="2"  idxTwo="14"  coef="-.139"/><qTerm  idx="-1"  idxOne="2"  idxTwo="15"  coef="1.4361"/><qTerm  idx="-1"  idxOne="2"  idxTwo="18"  coef="9.15e-2"/><qTerm  idx="-1"  idxOne="2"  idxTwo="21"  coef="-1.8801"/><qTerm  idx="-1"  idxOne="2"  idxTwo="22"  coef=".6512"/><qTerm  idx="-1"  idxOne="2"  idxTwo="23"  coef="-7.64e-2"/><qTerm  idx="-1"  idxOne="2"  idxTwo="25"  coef="-1.3522"/><qTerm  idx="-1"  idxOne="2"  idxTwo="26"  coef="1.2968"/><qTerm  idx="-1"  idxOne="2"  idxTwo="36"  coef="-1.2445"/><qTerm  idx="-1"  idxOne="3"  idxTwo="4"  coef="-.7475"/><qTerm  idx="-1"  idxOne="3"  idxTwo="7"  coef="-.1473"/><qTerm  idx="-1"  idxOne="3"  idxTwo="8"  coef="-.7919"/><qTerm  idx="-1"  idxOne="3"  idxTwo="21"  coef="1.2302"/><qTerm  idx="-1"  idxOne="3"  idxTwo="22"  coef="1.7263"/><qTerm  idx="-1"  idxOne="3"  idxTwo="24"  coef="-1.5264"/><qTerm  idx="-1"  idxOne="3"  idxTwo="25"  coef="1.8432"/><qTerm  idx="-1"  idxOne="3"  idxTwo="26"  coef="-1.6048"/><qTerm  idx="-1"  idxOne="3"  idxTwo="29"  coef=".9592"/><qTerm  idx="-1"  idxOne="3"  idxTwo="37"  coef="-1.8326"/><qTerm  idx="-1"  idxOne="4"  idxTwo="4"  coef="-.9652"/><qTerm  idx="-1"  idxOne="4"  idxTwo="7"  coef="1.1828"/><qTerm  idx="-1"  idxOne="4"  idxTwo="8"  coef=".3386"/><qTerm  idx="-1"  idxOne="4"  idxTwo="13"  coef="1.06e-2"/><qTerm  idx="-1"  idxOne="4"  idxTwo="19"  coef="-.5723"/><qTerm  idx="-1"  idxOne="4"  idxTwo="26"  coef="-1.4049"/><qTerm  idx="-1"  idxOne="4"  idxTwo="27"  coef="1.2286"/><qTerm  idx="-1"  idxOne="4"  idxTwo="28"  coef="-.6635"/><qTerm  idx="-1"  idxOne="4"  idxTwo="34"  coef="-9.59e-2"/><qTerm  idx="-1"  idxOne="4"  idxTwo="35"  coef="-.8267"/><qTerm  idx="-1"  idxOne="5"  idxTwo="12"  coef="-.491"/><qTerm  idx="-1"  idxOne="5"  idxTwo="13"  coef=".6768"/><qTerm  idx="-1"  idxOne="5"  idxTwo="14"  coef=".6208"/><qTerm  idx="-1"  idxOne="5"  idxTwo="18"  coef="1.8408"/><qTerm  idx="-1"  idxOne="5"  idxTwo="21"  coef="1.4998"/><qTerm  idx="-1"  idxOne="5"  idxTwo="23"  coef="1.9059"/><qTerm  idx="-1"  idxOne="5"  idxTwo="24"  coef="1.53e-2"/><qTerm  idx="-1"  idxOne="5"  idxTwo="27"  coef="1.3441"/><qTerm  idx="-1"  idxOne="5"  idxTwo="28"  coef=".898"/><qTerm  idx="-1"  idxOne="5"  idxTwo="30"  coef=".3614"/><qTerm  idx="-1"  idxOne="5"  idxTwo="34"  coef="-.7003"/><qTerm  idx="-1"  idxOne="5"  idxTwo="35"  coef=".3871"/><qTerm  idx="-1"  idxOne="6"  idxTwo="6"  coef="-.6876"/><qTerm  idx="-1"  idxOne="6"  idxTwo="17"  coef=".5911"/><qTerm  idx="-1"  idxOne="6"  idxTwo="25"  coef="1.9186"/><qTerm  idx="-1"  idxOne="6"  idxTwo="31"  coef="1.411"/><qTerm  idx="-1"  idxOne="6"  idxTwo="32"  coef="1.8601"/><qTerm  idx="-1"  idxOne="6"  idxTwo="36"  coef="-1.01"/><qTerm  idx="-1"  idxOne="7"  idxTwo="9"  coef="1.3873"/><qTerm  idx="-1"  idxOne="7"  idxTwo="12"  coef="-1.5212"/><qTerm  idx="-1"  idxOne="7"  idxTwo="22"  coef=".4147"/><qTerm  idx="-1"  idxOne="7"  idxTwo="27"  coef=".4937"/><qTerm  idx="-1"  idxOne="7"  idxTwo="28"  coef="1.548"/><qTerm  idx="-1"  idxOne="7"  idxTwo="29"  coef="-.5723"/><qTerm  idx="-1"  idxOne="7"  idxTwo="30"  coef="-.4139"/><qTerm  idx="-1"  idxOne="7"  idxTwo="31"  coef="2.38e-2"/><qTerm  idx="-1"  idxOne="7"  idxTwo="37"  coef=".4564"/><qTerm  idx="-1"  idxOne="8"  idxTwo="8"  coef=".6564"/><qTerm  idx="-1"  idxOne="8"  idxTwo="10"  coef="-.2592"/><qTerm  idx="-1"  idxOne="8"  idxTwo="19"  coef="-.7101"/><qTerm  idx="-1"  idxOne="8"  idxTwo="20"  coef="-.4876"/><qTerm  idx="-1"  idxOne="8"  idxTwo="22"  coef="1.8644"/><qTerm  idx="-1"  idxOne="8"  idxTwo="32"  coef=".2231"/><qTerm  idx="-1"  idxOne="8"  idxTwo="37"  coef=".4699"/><qTerm  idx="-1"  idxOne="9"  idxTwo="11"  coef="1.6458"/><qTerm  idx="-1"  idxOne="9"  idxTwo="15"  coef="-.2571"/><qTerm  idx="-1"  idxOne="9"  idxTwo="16"  coef="-1.5663"/><qTerm  idx="-1"  idxOne="9"  idxTwo="17"  coef="-.4067"/><qTerm  idx="-1"  idxOne="9"  idxTwo="26"  coef=".784"/><qTerm  idx="-1"  idxOne="9"  idxTwo="27"  coef="-.5904"/><qTerm  idx="-1"  idxOne="9"  idxTwo="28"  coef="-1.5469"/><qTerm  idx="-1"  idxOne="9"  idxTwo="31"  coef="-.2378"/><qTerm  idx="-1"  idxOne="10"  idxTwo="16"  coef=".2622"/><qTerm  idx="-1"  idxOne="10"  idxTwo="21"  coef=".8596"/><qTerm  idx="-1"  idxOne="10"  idxTwo="25"  coef="-.7368"/><qTerm  idx="-1"  idxOne="10"  idxTwo="31"  coef="-1.7932"/><qTerm  idx="-1"  idxOne="10"  idxTwo="33"  coef="-1.5987"/><qTerm  idx="-1"  idxOne="10"  idxTwo="36"  coef="1.6115"/><qTerm  idx="-1"  idxOne="11"  idxTwo="15"  coef="1.0804"/><qTerm  idx="-1"  idxOne="11"  idxTwo="22"  coef="-.9589"/><qTerm  idx="-1"  idxOne="11"  idxTwo="36"  coef=".6431"/><qTerm  idx="-1"  idxOne="12"  idxTwo="13"  coef="-.6933"/><qTerm  idx="-1"  idxOne="12"  idxTwo="20"  coef="-.2583"/><qTerm  idx="-1"  idxOne="12"  idxTwo="24"  coef="-.8548"/><qTerm  idx="-1"  idxOne="12"  idxTwo="25"  coef="1.9966"/><qTerm  idx="-1"  idxOne="12"  idxTwo="27"  coef="-1.1062"/><qTerm  idx="-1"  idxOne="12"  idxTwo="29"  coef="1.9105"/><qTerm  idx="-1"  idxOne="12"  idxTwo="35"  coef=".6745"/><qTerm  idx="-1"  idxOne="12"  idxTwo="36"  coef=".4663"/><qTerm  idx="-1"  idxOne="13"  idxTwo="21"  coef=".8509"/><qTerm  idx="-1"  idxOne="13"  idxTwo="23"  coef=".6992"/><qTerm  idx="-1"  idxOne="13"  idxTwo="24"  coef="1.4737"/><qTerm  idx="-1"  idxOne="13"  idxTwo="27"  coef="-1.0777"/><qTerm  idx="-1"  idxOne="13"  idxTwo="36"  coef="1.9938"/><qTerm  idx="-1"  idxOne="13"  idxTwo="39"  coef="1.8711"/><qTerm  idx="-1"  idxOne="14"  idxTwo="17"  coef="1.1162"/><qTerm  idx="-1"  idxOne="14"  idxTwo="20"  coef="1.025"/><qTerm  idx="-1"  idxOne="14"  idxTwo="23"  coef="-.594"/><qTerm  idx="-1"  idxOne="14"  idxTwo="24"  coef="-.3991"/><qTerm  idx="-1"  idxOne="14"  idxTwo="33"  coef="-.9231"/><qTerm  idx="-1"  idxOne="15"  idxTwo="18"  coef="1.5229"/><qTerm  idx="-1"  idxOne="15"  idxTwo="23"  coef=".2433"/><qTerm  idx="-1"  idxOne="15"  idxTwo="24"  coef=".4572"/><qTerm  idx="-1"  idxOne="15"  idxTwo="28"  coef=".2501"/><qTerm  idx="-1"  idxOne="15"  idxTwo="29"  coef="-1.3095"/><qTerm  idx="-1"  idxOne="15"  idxTwo="31"  coef="-1.1474"/><qTerm  idx="-1"  idxOne="15"  idxTwo="33"  coef="1.8038"/><qTerm  idx="-1"  idxOne="15"  idxTwo="37"  coef="-.2815"/><qTerm  idx="-1"  idxOne="15"  idxTwo="39"  coef="-1.0086"/><qTerm  idx="-1"  idxOne="16"  idxTwo="20"  coef="-1.6622"/><qTerm  idx="-1"  idxOne="16"  idxTwo="22"  coef=".9727"/><qTerm  idx="-1"  idxOne="16"  idxTwo="24"  coef=".2865"/><qTerm  idx="-1"  idxOne="16"  idxTwo="31"  coef=".118"/><qTerm  idx="-1"  idxOne="16"  idxTwo="33"  coef="1.0745"/><qTerm  idx="-1"  idxOne="16"  idxTwo="35"  coef="1.905"/><qTerm  idx="-1"  idxOne="16"  idxTwo="38"  coef="1.2755"/><qTerm  idx="-1"  idxOne="16"  idxTwo="39"  coef="-1.635"/><qTerm  idx="-1"  idxOne="17"  idxTwo="25"  coef="-1.8503"/><qTerm  idx="-1"  idxOne="17"  idxTwo="29"  coef="-.1029"/><qTerm  idx="-1"  idxOne="17"  idxTwo="33"  coef=".9505"/><qTerm  idx="-1"  idxOne="17"  idxTwo="34"  coef="-1.8803"/><qTerm  idx="-1"  idxOne="18"  idxTwo="18"  coef="-1.2551"/><qTerm  idx="-1"  idxOne="18"  idxTwo="27"  coef="-1.7362"/><qTerm  idx="-1"  idxOne="18"  idxTwo="34"  coef="1.0133"/><qTerm  idx="-1"  idxOne="18"  idxTwo="35"  coef=".4329"/><qTerm  idx="-1"  idxOne="19"  idxTwo="21"  coef="7.8e-2"/><qTerm  idx="-1"  idxOne="19"  idxTwo="22"  coef=".2848"/><qTerm  idx="-1"  idxOne="19"  idxTwo="23"  coef="1.8072"/><qTerm  idx="-1"  idxOne="19"  idxTwo="24"  coef="-1.7087"/><qTerm  idx="-1"  idxOne="19"  idxTwo="26"  coef="-1.2482"/><qTerm  idx="-1"  idxOne="19"  idxTwo="28"  coef="-.201"/><qTerm  idx="-1"  idxOne="19"  idxTwo="34"  coef="-1.2718"/><qTerm  idx="-1"  idxOne="20"  idxTwo="22"  coef="-1.1859"/><qTerm  idx="-1"  idxOne="20"  idxTwo="23"  coef="1.3579"/><qTerm  idx="-1"  idxOne="20"  idxTwo="27"  coef="-.7263"/><qTerm  idx="-1"  idxOne="20"  idxTwo="34"  coef=".3494"/><qTerm  idx="-1"  idxOne="21"  idxTwo="25"  coef="1.7516"/><qTerm  idx="-1"  idxOne="21"  idxTwo="32"  coef=".6705"/><qTerm  idx="-1"  idxOne="21"  idxTwo="33"  coef="-.5651"/><qTerm  idx="-1"  idxOne="21"  idxTwo="34"  coef="-.6317"/><qTerm  idx="-1"  idxOne="21"  idxTwo="35"  coef="-.9856"/><qTerm  idx="-1"  idxOne="21"  idxTwo="36"  coef="1.6114"/><qTerm  idx="-1"  idxOne="21"  idxTwo="38"  coef="1.2354"/><qTerm  idx="-1"  idxOne="22"  idxTwo="25"  coef="-.7802"/><qTerm  idx="-1"  idxOne="22"  idxTwo="26"  coef="1.7136"/><qTerm  idx="-1"  idxOne="22"  idxTwo="29"  coef="-1.3155"/><qTerm  idx="-1"  idxOne="22"  idxTwo="30"  coef="1.1126"/><qTerm  idx="-1"  idxOne="22"  idxTwo="31"  coef=".1897"/><qTerm  idx="-1"  idxOne="22"  idxTwo="33"  coef="1.7239"/><qTerm  idx="-1"  idxOne="23"  idxTwo="27"  coef="1.4824"/><qTerm  idx="-1"  idxOne="23"  idxTwo="31"  coef="-1.3297"/><qTerm  idx="-1"  idxOne="23"  idxTwo="33"  coef="-.8165"/><qTerm  idx="-1"  idxOne="23"  idxTwo="34"  coef="-1.2152"/><qTerm  idx="-1"  idxOne="24"  idxTwo="26"  coef=".2192"/><qTerm  idx="-1"  idxOne="24"  idxTwo="27"  coef="-.8999"/><qTerm  idx="-1"  idxOne="24"  idxTwo="38"  coef="-1.7822"/><qTerm  idx="-1"  idxOne="25"  idxTwo="26"  coef="1.81e-2"/><qTerm  idx="-1"  idxOne="25"  idxTwo="27"  coef="-1.642"/><qTerm  idx="-1"  idxOne="25"  idxTwo="36"  coef="-1.3811"/><qTerm  idx="-1"  idxOne="25"  idxTwo="39"  coef=".8117"/><qTerm  idx="-1"  idxOne="26"  idxTwo="28"  coef="-1.2977"/><qTerm  idx="-1"  idxOne="26"  idxTwo="33"  coef="1.401"/><qTerm  idx="-1"  idxOne="26"  idxTwo="36"  coef="1.4751"/><qTerm  idx="-1"  idxOne="27"  idxTwo="31"  coef="1.7806"/><qTerm  idx="-1"  idxOne="27"  idxTwo="32"  coef="-1.5765"/><qTerm  idx="-1"  idxOne="27"  idxTwo="33"  coef="-.28"/><qTerm  idx="-1"  idxOne="27"  idxTwo="34"  coef="-.6342"/><qTerm  idx="-1"  idxOne="27"  idxTwo="36"  coef="-.6982"/><qTerm  idx="-1"  idxOne="28"  idxTwo="31"  coef="-1.1333"/><qTerm  idx="-1"  idxOne="28"  idxTwo="33"  coef=".5297"/><qTerm  idx="-1"  idxOne="28"  idxTwo="39"  coef="-.1277"/><qTerm  idx="-1"  idxOne="29"  idxTwo="31"  coef="1.1686"/><qTerm  idx="-1"  idxOne="29"  idxTwo="39"  coef=".3717"/><qTerm  idx="-1"  idxOne="31"  idxTwo="32"  coef="1.2309"/><qTerm  idx="-1"  idxOne="31"  idxTwo="36"  coef="1.9825"/><qTerm  idx="-1"  idxOne="32"  idxTwo="32"  coef=".9597"/><qTerm  idx="-1"  idxOne="32"  idxTwo="33"  coef="-.6479"/><qTerm  idx="-1"  idxOne="33"  idxTwo="34"  coef="-.5547"/><qTerm  idx="-1"  idxOne="33"  idxTwo="35"  coef="-.5362"/><qTerm  idx="-1"  idxOne="33"  idxTwo="37"  coef="-1.5781"/><qTerm  idx="-1"  idxOne="33"  idxTwo="39"  coef=".6684"/><qTerm  idx="-1"  idxOne="34"  idxTwo="35"  coef="-.9006"/><qTerm  idx="-1"  idxOne="34"  idxTwo="38"  coef="-.3835"/><qTerm  idx="-1"  idxOne="35"  idxTwo="38"  coef="-1.7831"/><qTerm  idx="-1"  idxOne="36"  idxTwo="37"  coef=".3074"/><qTerm  idx="-1"  idxOne="36"  idxTwo="38"  coef=".5179"/><qTerm  idx="-1"  idxOne="36"  idxTwo="39"  coef=".8667"/></quadraticCoefficients></instanceData></osil>
